25.0 14.0
25.0 12.0
25.0 10.0
28.0 12.0
28.0 7.0
34.0 5.0
32.0 10.0
33.0 10.0
34.0 10.0
34.0 13.0
33.0 13.0
32.0 13.0
28.0 15.0
28.0 19.0
28.0 23.0
28.0 27.0
35.0 24.0
38.0 27.0
34.0 28.0
38.0 37.0
38.0 40.0
51.0 37.0
48.0 34.0
48.0 32.0
51.0 26.0
55.0 26.0
56.0 24.0
55.0 22.0
56.0 20.0
55.0 19.0
51.0 22.0
51.0 18.0
51.0 14.0
48.0 10.0
51.0 7.0
51.0 11.0
57.0 12.0
56.0 10.0
57.0 10.0
57.0 5.0
54.0 0.0
55.0 0.0
72.0 0.0
73.0 0.0
71.0 6.0
78.0 10.0
79.0 10.0
80.0 10.0
81.0 10.0
86.0 6.0
94.0 6.0
97.0 11.0
102.0 10.0
103.0 10.0
104.0 12.0
109.0 6.0
107.0 11.0
107.0 15.0
103.0 16.0
103.0 24.0
107.0 25.0
107.0 28.0
107.0 30.0
109.0 34.0
109.0 35.0
109.0 36.0
103.0 42.0
94.0 36.0
94.0 35.0
94.0 34.0
97.0 30.0
97.0 28.0
103.0 27.0
97.0 25.0
94.0 22.0
94.0 20.0
97.0 15.0
94.0 10.0
87.0 11.0
87.0 13.0
87.0 15.0
87.0 17.0
87.0 19.0
87.0 21.0
87.0 23.0
87.0 25.0
87.0 27.0
87.0 29.0
87.0 31.0
87.0 33.0
87.0 35.0
87.0 37.0
87.0 39.0
87.0 41.0
87.0 42.0
87.0 44.0
87.0 45.0
94.0 52.0
97.0 57.0
103.0 55.0
110.0 52.0
120.0 44.0
120.0 40.0
124.0 44.0
124.0 40.0
120.0 34.0
120.0 29.0
123.0 26.0
120.0 25.0
120.0 19.0
120.0 15.0
120.0 11.0
120.0 7.0
126.0 5.0
127.0 12.0
127.0 16.0
130.0 15.0
130.0 19.0
130.0 25.0
130.0 29.0
130.0 34.0
124.0 37.0
125.0 38.0
125.0 42.0
130.0 39.0
130.0 43.0
126.0 46.0
117.0 50.0
117.0 52.0
120.0 55.0
126.0 54.0
130.0 55.0
130.0 58.0
132.0 63.0
130.0 60.0
126.0 57.0
120.0 58.0
120.0 60.0
117.0 63.0
103.0 58.0
97.0 60.0
97.0 64.0
80.0 50.0
80.0 58.0
84.0 59.0
84.0 62.0
84.0 64.0
80.0 61.0
74.0 59.0
74.0 62.0
74.0 64.0
64.0 61.0
71.0 56.0
71.0 54.0
74.0 49.0
74.0 43.0
74.0 37.0
80.0 47.0
84.0 43.0
84.0 37.0
84.0 31.0
84.0 25.0
84.0 19.0
84.0 13.0
74.0 31.0
74.0 25.0
74.0 19.0
74.0 13.0
61.0 11.0
58.0 15.0
61.0 18.0
61.0 21.0
61.0 25.0
57.0 28.0
57.0 36.0
61.0 37.0
61.0 40.0
63.0 45.0
61.0 42.0
57.0 39.0
51.0 40.0
51.0 42.0
48.0 45.0
40.0 45.0
48.0 61.0
41.0 61.0
34.0 51.0
34.0 51.0
38.0 42.0
34.0 39.0
34.0 28.0
28.0 37.0
28.0 40.0
28.0 42.0
25.0 45.0
25.0 34.0
25.0 32.0
18.0 28.0
11.0 34.0
10.0 42.0
11.0 42.0
25.0 61.0
15.0 64.0
12.0 61.0
5.0 64.0
0.0 60.0
0.0 51.0
2.0 44.0
5.0 40.0
5.0 36.0
0.0 33.0
2.0 28.0
5.0 33.0
11.0 31.0
17.0 21.0
15.0 18.0
15.0 13.0
11.0 17.0
5.0 18.0
2.0 21.0
0.0 15.0
5.0 13.0
5.0 8.0
9.0 10.0
10.0 10.0
11.0 10.0
12.0 10.0
12.0 5.0
15.0 8.0
18.0 11.0
18.0 13.0
18.0 14.0
18.0 15.0
25.0 23.0
25.0 20.0
25.0 18.0
25.0 16.0
